qbf_easy_train/easy_965_SAT.qdimacs
p cnf 17 33
a 4 5 0
e 1 2 3 6 7 8 9 10 11 12 13 14 15 16 17 0
3 -1 0
3 -2 0
1 2 -3 0
4 -5 -6 0
-4 5 -6 0
4 5 6 0
-4 -5 6 0
-9 7 0
-9 -8 0
-7 8 9 0
-11 8 0
-11 10 0
-8 -10 11 0
-12 9 0
-12 -11 0
-9 11 12 0
-13 -6 0
-13 12 0
6 -12 13 0
-3 13 -14 0
3 -13 -14 0
-3 -13 14 0
3 13 14 0
-16 15 0
-16 4 0
-15 -4 16 0
17 -14 0
17 16 0
14 -16 -17 0
-13 -9 -2 0
15 -9 13 5 -16 0
-14 8 16 -11 -7 0
17 0
