sat_easy_train/easy_965_SAT.dimacs
p cnf 136 466
-3 1 0
-3 -2 0
-1 2 3 0
-7 5 0
-7 6 0
-5 -6 7 0
8 4 0
8 7 0
-4 -7 -8 0
-3 -8 -9 0
3 8 -9 0
-3 8 9 0
3 -8 9 0
10 -11 -12 0
-10 11 -12 0
10 11 12 0
-10 -11 12 0
12 -13 -14 0
-12 13 -14 0
12 13 14 0
-12 -13 14 0
14 1 -15 0
-14 -1 -15 0
14 -1 15 0
-14 1 15 0
7 15 -16 0
-7 -15 -16 0
7 -15 16 0
-7 15 16 0
-17 7 0
-17 13 0
-7 -13 17 0
-18 -4 0
-18 17 0
4 -17 18 0
-19 18 0
-19 11 0
-18 -11 19 0
-19 17 -20 0
19 -17 -20 0
-19 -17 20 0
19 17 20 0
16 20 -21 0
-16 -20 -21 0
16 -20 21 0
-16 20 21 0
9 -21 -22 0
-9 21 -22 0
9 21 22 0
-9 -21 22 0
24 25 -26 0
-24 -25 -26 0
24 -25 26 0
-24 25 26 0
27 14 0
27 26 0
-14 -26 -27 0
-27 19 -28 0
27 -19 -28 0
-27 -19 28 0
27 19 28 0
29 23 0
29 28 0
-23 -28 -29 0
30 -20 0
30 5 0
20 -5 -30 0
-31 -29 0
-31 -30 0
29 30 31 0
-22 31 -32 0
22 -31 -32 0
-22 -31 32 0
22 31 32 0
34 -26 0
34 16 0
26 -16 -34 0
-33 -34 -35 0
33 34 -35 0
-33 34 35 0
33 -34 35 0
-15 23 -36 0
15 -23 -36 0
-15 -23 36 0
15 23 36 0
-35 -36 -37 0
35 36 -37 0
-35 36 37 0
35 -36 37 0
-38 17 0
-38 12 0
-17 -12 38 0
-39 18 0
-39 -38 0
-18 38 39 0
-39 10 -40 0
39 -10 -40 0
-39 -10 40 0
39 10 40 0
42 -40 0
42 -41 0
40 41 -42 0
-43 23 0
-43 -17 0
-23 17 43 0
44 -42 0
44 43 0
42 -43 -44 0
46 -13 0
46 -45 0
13 45 -46 0
5 46 -47 0
-5 -46 -47 0
5 -46 47 0
-5 46 47 0
-48 -38 0
-48 47 0
38 -47 48 0
-49 1 0
-49 10 0
-1 -10 49 0
51 -49 0
51 -50 0
49 50 -51 0
27 -51 -52 0
-27 51 -52 0
27 51 52 0
-27 -51 52 0
-53 45 0
-53 20 0
-45 -20 53 0
54 -53 0
54 -9 0
53 9 -54 0
55 52 0
55 54 0
-52 -54 -55 0
48 55 -56 0
-48 -55 -56 0
48 -55 56 0
-48 55 56 0
44 -56 -57 0
-44 56 -57 0
44 56 57 0
-44 -56 57 0
37 -57 -58 0
-37 57 -58 0
37 57 58 0
-37 -57 58 0
59 -3 0
59 -18 0
3 18 -59 0
60 -59 0
60 43 0
59 -43 -60 0
-60 -61 -62 0
60 61 -62 0
-60 61 62 0
60 -61 62 0
-63 -10 0
-63 -23 0
10 23 63 0
64 25 0
64 5 0
-25 -5 -64 0
65 -64 0
65 6 0
64 -6 -65 0
-66 63 0
-66 -65 0
-63 65 66 0
67 -62 0
67 66 0
62 -66 -67 0
68 3 0
68 4 0
-3 -4 -68 0
-69 -24 0
-69 68 0
24 -68 69 0
70 -4 0
70 51 0
4 -51 -70 0
18 -45 -71 0
-18 45 -71 0
18 45 71 0
-18 -45 71 0
71 5 -72 0
-71 -5 -72 0
71 -5 72 0
-71 5 72 0
-73 -14 0
-73 17 0
14 -17 73 0
-72 73 -74 0
72 -73 -74 0
-72 -73 74 0
72 73 74 0
-70 -74 -75 0
70 74 -75 0
-70 74 75 0
70 -74 75 0
-76 69 0
-76 75 0
-69 -75 76 0
-67 -76 -77 0
67 76 -77 0
-67 76 77 0
67 -76 77 0
-78 -43 0
-78 -42 0
43 42 78 0
79 -78 0
79 -5 0
78 5 -79 0
38 -70 -80 0
-38 70 -80 0
38 70 80 0
-38 -70 80 0
81 8 0
81 26 0
-8 -26 -81 0
-80 -81 -82 0
80 81 -82 0
-80 81 82 0
80 -81 82 0
83 -12 0
83 -4 0
12 4 -83 0
84 38 0
84 54 0
-38 -54 -84 0
85 -1 0
85 -17 0
1 17 -85 0
-84 85 -86 0
84 -85 -86 0
-84 -85 86 0
84 85 86 0
-83 -86 -87 0
83 86 -87 0
-83 86 87 0
83 -86 87 0
-88 1 0
-88 -12 0
-1 12 88 0
-88 49 -89 0
88 -49 -89 0
-88 -49 89 0
88 49 89 0
-90 -87 0
-90 89 0
87 -89 90 0
82 -90 -91 0
-82 90 -91 0
82 90 91 0
-82 -90 91 0
92 -79 0
92 91 0
79 -91 -92 0
-93 -1 0
-93 -63 0
1 63 93 0
-47 -93 -94 0
47 93 -94 0
-47 93 94 0
47 -93 94 0
-92 -94 -95 0
92 94 -95 0
-92 94 95 0
92 -94 95 0
-96 28 0
-96 -20 0
-28 20 96 0
97 59 0
97 74 0
-59 -74 -97 0
98 73 0
98 97 0
-73 -97 -98 0
-99 -96 0
-99 98 0
96 -98 99 0
-95 99 -100 0
95 -99 -100 0
-95 -99 100 0
95 99 100 0
77 100 -101 0
-77 -100 -101 0
77 -100 101 0
-77 100 101 0
102 -58 0
102 101 0
58 -101 -102 0
103 -14 0
103 -53 0
14 53 -103 0
-34 -16 -104 0
34 16 -104 0
-34 16 104 0
34 -16 104 0
105 -42 0
105 -104 0
42 104 -105 0
64 105 -106 0
-64 -105 -106 0
64 -105 106 0
-64 105 106 0
-107 38 0
-107 -106 0
-38 106 107 0
-108 -103 0
-108 107 0
103 -107 108 0
109 102 0
109 -108 0
-102 108 -109 0
110 -32 0
110 109 0
32 -109 -110 0
-111 -38 0
-111 2 0
38 -2 111 0
-112 111 0
-112 20 0
-111 -20 112 0
113 51 0
113 -39 0
-51 39 -113 0
-71 113 -114 0
71 -113 -114 0
-71 -113 114 0
71 113 114 0
115 50 0
115 -34 0
-50 34 -115 0
116 -114 0
116 115 0
114 -115 -116 0
117 112 0
117 -116 0
-112 116 -117 0
118 -39 0
118 12 0
39 -12 -118 0
-119 72 0
-119 -11 0
-72 11 119 0
-120 70 0
-120 53 0
-70 -53 120 0
121 -119 0
121 -120 0
119 120 -121 0
122 -118 0
122 121 0
118 -121 -122 0
123 -117 0
123 122 0
117 -122 -123 0
124 -51 0
124 -1 0
51 1 -124 0
125 -14 0
125 124 0
14 -124 -125 0
125 47 -126 0
-125 -47 -126 0
125 -47 126 0
-125 47 126 0
126 -78 -127 0
-126 78 -127 0
126 78 127 0
-126 -78 127 0
-128 123 0
-128 127 0
-123 -127 128 0
-129 -23 0
-129 12 0
23 -12 129 0
-130 129 0
-130 26 0
-129 -26 130 0
-45 72 -131 0
45 -72 -131 0
-45 -72 131 0
45 72 131 0
-130 131 -132 0
130 -131 -132 0
-130 -131 132 0
130 131 132 0
128 -132 -133 0
-128 132 -133 0
128 132 133 0
-128 -132 133 0
134 -42 0
134 3 0
42 -3 -134 0
135 133 0
135 134 0
-133 -134 -135 0
136 -110 0
136 135 0
110 -135 -136 0
42 -5 -76 -30 -112 0
-20 13 -17 -90 131 0
-93 -110 37 -1 0
62 101 -115 98 56 -82 0
90 12 114 -85 0
70 -59 91 67 121 0
20 -111 0
82 -31 -115 62 -5 0
-46 1 -111 55 0
88 -41 -113 0
134 -26 -19 45 -52 -133 0
-124 -10 69 0
64 126 35 -89 0
28 -20 -136 62 79 48 0
69 43 -114 86 34 -125 0
-32 127 44 12 0
3 29 50 0
128 129 0
-82 -39 0
-133 -3 -97 109 -66 69 0
45 43 69 98 -58 0
-12 82 22 2 124 76 0
-122 -70 121 -5 0
88 35 63 -116 0
-24 -82 59 34 -65 0
90 -117 -64 58 0
-86 -113 -44 -47 -40 0
59 50 110 -108 -127 0
-86 -60 7 -47 -117 -67 0
66 102 94 87 -79 -88 0
97 -114 -101 120 -47 46 0
-106 -60 -45 40 72 0
-22 50 -89 58 -24 0
-91 -17 -16 134 -131 0
-93 -73 -10 -129 0
-94 56 -99 -64 -23 116 0
-69 -108 -21 57 2 0
104 54 -128 -132 -40 -28 0
53 -14 54 -21 -50 0
-59 62 -2 0
49 135 -94 96 0
135 -91 0
9 122 2 4 0
-79 70 0
-51 112 -31 -96 -59 26 0
-124 128 -109 -80 -88 0
1 -71 -22 134 13 -36 0
42 131 -44 -76 -58 -128 0
78 71 -99 -5 0
37 73 93 53 107 0
-105 80 0
118 61 -12 22 73 -7 0
121 48 21 0
-100 -96 7 -65 0
124 -121 -42 -53 108 0
-103 -99 76 54 0
26 91 15 75 70 50 0
81 49 0
-116 -50 -62 -61 0
18 70 0
-44 -36 -67 -27 0
136 0
